# Objective value = 1.9373340686335578e+03
x[0] 0
x[1] 1
x[2] 0
x[3] 0
x[4] 1
x[5] 1
x[6] 1
x[7] 1
x[8] 0
x[9] 0
x[10] 1
x[11] 1
x[12] 0
x[13] 0
x[14] 1
x[15] 1
x[16] 1
x[17] 0
x[18] 0
x[19] 0
x[20] 0
x[21] 1
x[22] 0
x[23] 1
x[24] 1
x[25] 0
x[26] 1
x[27] 0
x[28] 0
x[29] 1
x[30] 1
x[31] 0
x[32] 1
x[33] 0
x[34] 0
x[35] 0
x[36] 0
x[37] 1
x[38] 0
x[39] 0
x[40] 1
x[41] 0
x[42] 1
x[43] 1
x[44] 1
x[45] 0
x[46] 0
x[47] 1
x[48] 0
x[49] 0
x[50] 0
x[51] 1
x[52] 0
x[53] 0
x[54] 1
x[55] 0
x[56] 1
x[57] 0
x[58] 1
x[59] 1
x[60] 0
x[61] 1
x[62] 1
x[63] 0
x[64] 1
x[65] 1
x[66] 0
x[67] 1
x[68] 0
x[69] 1
x[70] 1
x[71] 1
x[72] 0
x[73] 1
x[74] 1
x[75] 0
x[76] 0
x[77] 1
x[78] 1
x[79] 1
x[80] 1
x[81] 0
x[82] 1
x[83] 0
x[84] 1
x[85] 1
x[86] 1
x[87] 0
x[88] 0
x[89] 1
x[90] 1
x[91] 1
x[92] 1
x[93] 1
x[94] 0
x[95] 1
x[96] 0
x[97] 1
x[98] 0
x[99] 1
x[100] 0
x[101] 0
x[102] 1
x[103] 1
x[104] 0
x[105] 1
x[106] 1
x[107] 1
x[108] 1
x[109] 1
x[110] 1
x[111] 1
x[112] 1
x[113] 1
x[114] 1
x[115] 1
x[116] 0
x[117] 0
x[118] 0
x[119] 1
x[120] 1
x[121] 1
x[122] 0
x[123] 0
x[124] 0
x[125] 1
x[126] 1
x[127] 0
x[128] 1
x[129] 1
x[130] 1
x[131] 1
x[132] 1
x[133] 1
x[134] 1
x[135] 0
x[136] 1
x[137] 1
x[138] 0
x[139] 0
x[140] 1
x[141] 0
x[142] 0
x[143] 0
x[144] 1
x[145] 0
x[146] 0
x[147] 0
x[148] 1
x[149] 0
x[150] 0
x[151] 1
x[152] 0
x[153] 1
x[154] 1
x[155] 0
x[156] 0
x[157] 0
x[158] 0
x[159] 1
x[160] 1
x[161] 0
x[162] 1
x[163] 0
x[164] 1
x[165] 0
x[166] 1
x[167] 1
x[168] 0
x[169] 0
x[170] 0
x[171] 1
x[172] 1
x[173] 0
x[174] 1
x[175] 0
x[176] 1
x[177] 0
x[178] 0
x[179] 1
x[180] 0
x[181] 0
x[182] 0
x[183] 1
x[184] 1
x[185] 0
x[186] 0
x[187] 0
x[188] 1
x[189] 1
x[190] 1
x[191] 1
x[192] 0
x[193] 0
x[194] 0
x[195] 0
x[196] 1
x[197] 1
x[198] 1
x[199] 1
x[200] 1
x[201] 0
x[202] 0
x[203] 1
x[204] 1
x[205] 1
x[206] 1
x[207] 0
x[208] 0
x[209] 1
x[210] 1
x[211] 0
x[212] 1
x[213] 1
x[214] 1
x[215] 0
x[216] 0
x[217] 1
x[218] 0
x[219] 1
x[220] 1
x[221] 1
x[222] 1
x[223] 0
x[224] 1
x[225] 0
x[226] 0
x[227] 1
x[228] 0
x[229] 1
x[230] 1
x[231] 1
x[232] 1
x[233] 1
x[234] 0
x[235] 0
x[236] 0
x[237] 1
x[238] 1
x[239] 1
x[240] 1
x[241] 0
x[242] 1
x[243] 0
x[244] 1
x[245] 0
x[246] 0
x[247] 1
x[248] 1
x[249] 0
x[250] 0
x[251] 0
x[252] 1
x[253] 0
x[254] 0
x[255] 0
x[256] 1
x[257] 0
x[258] 0
x[259] 0
x[260] 0
x[261] 0
x[262] 1
x[263] 0
x[264] 1
x[265] 0
x[266] 1
x[267] 1
x[268] 1
x[269] 1
x[270] 1
x[271] 1
x[272] 0
x[273] 1
x[274] 0
x[275] 1
x[276] 1
x[277] 0
x[278] 1
x[279] 0
x[280] 1
x[281] 0
x[282] 0
x[283] 0
x[284] 1
x[285] 1
x[286] 1
x[287] 1
x[288] 0
x[289] 1
x[290] 1
x[291] 1
x[292] 1
x[293] 0
x[294] 0
x[295] 1
x[296] 1
x[297] 0
x[298] 1
x[299] 0
x[300] 1
x[301] 0
x[302] 1
x[303] 0
x[304] 1
x[305] 1
x[306] 1
x[307] 0
x[308] 1
x[309] 1
x[310] 0
x[311] 0
x[312] 1
x[313] 0
x[314] 1
x[315] 0
x[316] 0
x[317] 0
x[318] 1
x[319] 1
x[320] 0
x[321] 0
x[322] 1
x[323] 1
x[324] 0
x[325] 1
x[326] 0
x[327] 1
x[328] 1
x[329] 1
x[330] 1
x[331] 0
x[332] 0
x[333] 1
x[334] 1
x[335] 0
x[336] 0
x[337] 0
x[338] 0
x[339] 1
x[340] 0
x[341] 0
x[342] 0
x[343] 1
x[344] 0
x[345] 1
x[346] 0
x[347] 0
x[348] 1
x[349] 0
x[350] 1
x[351] 1
x[352] 0
x[353] 0
x[354] 0
x[355] 0
x[356] 0
x[357] 1
x[358] 0
x[359] 1
x[360] 0
x[361] 1
x[362] 1
x[363] 0
x[364] 0
x[365] 0
x[366] 1
x[367] 0
x[368] 0
x[369] 0
x[370] 1
x[371] 1
x[372] 1
x[373] 0
x[374] 1
x[375] 1
x[376] 1
x[377] 0
x[378] 1
x[379] 0
x[380] 0
x[381] 1
x[382] 0
x[383] 0
x[384] 1
x[385] 1
x[386] 1
x[387] 1
x[388] 1
x[389] 1
x[390] 1
x[391] 1
x[392] 1
x[393] 1
x[394] 0
x[395] 0
x[396] 1
x[397] 1
x[398] 1
x[399] 0
x[400] 0
x[401] 1
x[402] 1
x[403] 1
x[404] 0
x[405] 1
x[406] 1
x[407] 1
x[408] 0
x[409] 0
x[410] 1
x[411] 1
x[412] 1
x[413] 1
x[414] 0
x[415] 0
x[416] 1
x[417] 0
x[418] 1
x[419] 0
x[420] 0
x[421] 1
x[422] 1
x[423] 0
x[424] 0
x[425] 0
x[426] 1
x[427] 0
x[428] 1
x[429] 1
x[430] 1
x[431] 1
x[432] 0
x[433] 0
x[434] 1
x[435] 1
x[436] 1
x[437] 1
x[438] 1
x[439] 0
x[440] 1
x[441] 1
x[442] 1
x[443] 0
x[444] 0
x[445] 0
x[446] 1
x[447] 1
x[448] 0
x[449] 0
x[450] 1
x[451] 1
x[452] 0
x[453] 0
x[454] 1
x[455] 1
x[456] 1
x[457] 1
x[458] 1
x[459] 0
x[460] 1
x[461] 1
x[462] 1
x[463] 1
x[464] 1
x[465] 1
x[466] 0
x[467] 0
x[468] 0
x[469] 0
x[470] 1
x[471] 1
x[472] 1
x[473] 1
x[474] 0
x[475] 0
x[476] 0
x[477] 1
x[478] 1
x[479] 1
x[480] 0
x[481] 1
x[482] 1
x[483] 1
x[484] 1
x[485] 0
x[486] 1
x[487] 1
x[488] 0
x[489] 1
x[490] 1
x[491] 1
x[492] 1
x[493] 0
x[494] 1
x[495] 0
x[496] 0
x[497] 1
x[498] 1
x[499] 1
x[500] 1
x[501] 0
x[502] 0
x[503] 1
x[504] 0
x[505] 0
x[506] 1
x[507] 0
x[508] 1
x[509] 1
x[510] 1
x[511] 1
x[512] 0
x[513] 1
x[514] 1
x[515] 1
x[516] 0
x[517] 1
x[518] 1
x[519] 0
x[520] 1
x[521] 1
x[522] 0
x[523] 1
x[524] 0
x[525] 0
x[526] 1
x[527] 1
x[528] 1
x[529] 0
x[530] 1
x[531] 0
x[532] 0
x[533] 0
x[534] 1
x[535] 0
x[536] 0
x[537] 1
x[538] 1
x[539] 1
x[540] 1
x[541] 1
x[542] 0
x[543] 1
x[544] 0
x[545] 0
x[546] 1
x[547] 1
x[548] 0
x[549] 1
x[550] 1
x[551] 0
x[552] 1
x[553] 0
x[554] 1
x[555] 1
x[556] 1
x[557] 1
x[558] 0
x[559] 0
x[560] 1
x[561] 0
x[562] 0
x[563] 0
x[564] 0
x[565] 0
x[566] 1
x[567] 0
x[568] 1
x[569] 1
x[570] 0
x[571] 0
x[572] 1
x[573] 1
x[574] 0
x[575] 1
x[576] 1
x[577] 0
x[578] 0
x[579] 0
x[580] 1
x[581] 0
x[582] 1
x[583] 1
x[584] 1
x[585] 0
x[586] 1
x[587] 1
x[588] 1
x[589] 1
x[590] 1
x[591] 0
x[592] 1
x[593] 1
x[594] 1
x[595] 1
x[596] 0
x[597] 0
x[598] 1
x[599] 0
x[600] 1
x[601] 1
x[602] 1
x[603] 0
x[604] 0
x[605] 0
x[606] 1
x[607] 0
x[608] 0
x[609] 0
x[610] 1
x[611] 0
x[612] 1
x[613] 1
x[614] 1
x[615] 0
x[616] 1
x[617] 0
x[618] 1
x[619] 1
x[620] 0
x[621] 1
x[622] 0
x[623] 0
x[624] 0
x[625] 1
x[626] 0
x[627] 0
x[628] 1
x[629] 1
x[630] 1
x[631] 1
x[632] 1
x[633] 1
x[634] 1
x[635] 1
x[636] 0
x[637] 1
x[638] 1
x[639] 1
x[640] 1
x[641] 1
x[642] 1
x[643] 1
x[644] 1
x[645] 1
x[646] 0
x[647] 1
x[648] 0
x[649] 0
x[650] 1
x[651] 0
x[652] 0
x[653] 1
x[654] 0
x[655] 1
x[656] 1
x[657] 1
x[658] 1
x[659] 0
x[660] 0
x[661] 1
x[662] 1
x[663] 0
x[664] 0
x[665] 0
x[666] 1
x[667] 1
x[668] 0
x[669] 0
x[670] 1
x[671] 0
x[672] 0
x[673] 0
x[674] 1
x[675] 0
x[676] 0
x[677] 0
x[678] 1
x[679] 0
x[680] 1
x[681] 1
x[682] 1
x[683] 1
x[684] 1
x[685] 0
x[686] 0
x[687] 1
x[688] 0
x[689] 0
x[690] 1
x[691] 0
x[692] 0
x[693] 0
x[694] 0
x[695] 1
x[696] 1
x[697] 1
x[698] 1
x[699] 0
x[700] 1
x[701] 0
x[702] 1
x[703] 1
x[704] 0
x[705] 1
x[706] 1
x[707] 0
x[708] 0
x[709] 1
x[710] 0
x[711] 0
x[712] 1
x[713] 0
x[714] 0
x[715] 1
x[716] 0
x[717] 1
x[718] 0
x[719] 0
x[720] 1
x[721] 1
x[722] 1
x[723] 1
x[724] 0
x[725] 1
x[726] 1
x[727] 0
x[728] 1
x[729] 0
x[730] 0
x[731] 0
x[732] 1
x[733] 0
x[734] 0
x[735] 1
x[736] 0
x[737] 1
x[738] 0
x[739] 0
x[740] 0
x[741] 1
x[742] 1
x[743] 0
x[744] 0
x[745] 0
x[746] 1
x[747] 1
x[748] 0
x[749] 1
x[750] 1
x[751] 0
x[752] 0
x[753] 0
x[754] 0
x[755] 1
x[756] 1
x[757] 1
x[758] 0
x[759] 1
x[760] 1
x[761] 1
x[762] 0
x[763] 1
x[764] 1
x[765] 0
x[766] 0
x[767] 0
x[768] 1
x[769] 0
x[770] 1
x[771] 1
x[772] 0
x[773] 1
x[774] 1
x[775] 0
x[776] 0
x[777] 0
x[778] 1
x[779] 0
x[780] 0
x[781] 1
x[782] 1
x[783] 1
x[784] 0
x[785] 0
x[786] 1
x[787] 0
x[788] 0
x[789] 1
x[790] 1
x[791] 1
x[792] 1
x[793] 1
x[794] 0
x[795] 1
x[796] 1
x[797] 1
x[798] 0
x[799] 0
x[800] 0
x[801] 0
x[802] 1
x[803] 0
x[804] 0
x[805] 0
x[806] 1
x[807] 0
x[808] 1
x[809] 0
x[810] 0
x[811] 1
x[812] 1
x[813] 1
x[814] 1
x[815] 1
x[816] 0
x[817] 1
x[818] 0
x[819] 1
x[820] 1
x[821] 1
x[822] 1
x[823] 0
x[824] 0
x[825] 0
x[826] 0
x[827] 0
x[828] 0
x[829] 0
x[830] 1
x[831] 1
x[832] 0
x[833] 1
x[834] 0
x[835] 0
x[836] 1
x[837] 1
x[838] 0
x[839] 0
x[840] 0
x[841] 1
x[842] 1
x[843] 1
x[844] 1
x[845] 1
x[846] 1
x[847] 1
x[848] 1
x[849] 0
x[850] 1
x[851] 0
x[852] 0
x[853] 0
x[854] 1
x[855] 1
x[856] 1
x[857] 1
x[858] 1
x[859] 0
x[860] 1
x[861] 1
x[862] 1
x[863] 1
x[864] 1
x[865] 0
x[866] 1
x[867] 0
x[868] 0
x[869] 1
x[870] 1
x[871] 0
x[872] 1
x[873] 0
x[874] 1
x[875] 0
x[876] 0
x[877] 1
x[878] 1
x[879] 0
x[880] 0
x[881] 1
x[882] 0
x[883] 0
x[884] 1
x[885] 0
x[886] 0
x[887] 1
x[888] 1
x[889] 0
x[890] 0
x[891] 0
x[892] 1
x[893] 1
x[894] 1
x[895] 1
x[896] 1
x[897] 1
x[898] 1
x[899] 1
x[900] 0
x[901] 0
x[902] 0
x[903] 1
x[904] 1
x[905] 0
x[906] 1
x[907] 1
x[908] 1
x[909] 1
x[910] 1
x[911] 1
x[912] 0
x[913] 0
x[914] 0
x[915] 1
x[916] 0
x[917] 0
x[918] 1
x[919] 1
x[920] 1
x[921] 1
x[922] 1
x[923] 0
x[924] 1
x[925] 0
x[926] 1
x[927] 1
x[928] 1
x[929] 1
x[930] 1
x[931] 1
x[932] 0
x[933] 0
x[934] 0
x[935] 1
x[936] 1
x[937] 0
x[938] 1
x[939] 1
x[940] 1
x[941] 1
x[942] 1
x[943] 1
x[944] 0
x[945] 1
x[946] 1
x[947] 0
x[948] 0
x[949] 1
x[950] 0
x[951] 1
x[952] 0
x[953] 0
x[954] 1
x[955] 1
x[956] 1
x[957] 1
x[958] 1
x[959] 1
x[960] 0
x[961] 0
x[962] 1
x[963] 0
x[964] 1
x[965] 1
x[966] 0
x[967] 1
x[968] 1
x[969] 1
x[970] 1
x[971] 1
x[972] 1
x[973] 1
x[974] 1
x[975] 1
x[976] 1
x[977] 1
x[978] 0
x[979] 0
x[980] 0
x[981] 1
x[982] 0
x[983] 1
x[984] 1
x[985] 0
x[986] 1
x[987] 1
x[988] 0
x[989] 1
x[990] 1
x[991] 0
x[992] 1
x[993] 0
x[994] 1
x[995] 1
x[996] 0
x[997] 1
x[998] 0
x[999] 0
